p cnf 229 1154
-9 -80 0
-9 -79 0
-8 -79 0
-9 -78 0
-8 -78 0
-7 -78 0
-9 -77 0
-8 -77 0
-7 -77 0
-6 -77 0
-9 -76 0
-8 -76 0
-7 -76 0
-6 -76 0
-5 -76 0
-9 -75 0
-8 -75 0
-7 -75 0
-6 -75 0
-5 -75 0
-4 -75 0
-9 -74 0
-8 -74 0
-7 -74 0
-6 -74 0
-5 -74 0
-4 -74 0
-3 -74 0
-9 -73 0
-8 -73 0
-7 -73 0
-6 -73 0
-5 -73 0
-4 -73 0
-3 -73 0
-2 -73 0
-9 0
-8 0
-7 0
-6 0
-74 229 0
-64 -229 0
-75 228 0
-75 -227 0
-65 -228 0
-65 227 0
-55 -228 0
-55 -227 0
-76 226 0
-76 225 0
-66 226 0
-66 -225 0
-56 -226 0
-56 225 0
-46 -226 0
-46 -225 0
-77 224 0
-77 -223 0
-77 -222 0
-67 -224 0
-67 223 0
-67 222 0
-57 -224 0
-57 223 0
-57 -222 0
-47 -224 0
-47 -223 0
-47 222 0
-37 -224 0
-37 -223 0
-37 -222 0
-78 221 0
-78 -220 0
-78 219 0
-68 221 0
-68 -220 0
-68 -219 0
-58 -221 0
-58 220 0
-58 219 0
-48 -221 0
-48 220 0
-48 -219 0
-38 -221 0
-38 -220 0
-38 219 0
-28 -221 0
-28 -220 0
-28 -219 0
-79 218 0
-79 217 0
-79 -216 0
-69 218 0
-69 -217 0
-69 216 0
-59 218 0
-59 -217 0
-59 -216 0
-49 -218 0
-49 217 0
-49 216 0
-39 -218 0
-39 217 0
-39 -216 0
-29 -218 0
-29 -217 0
-29 216 0
-19 -218 0
-19 -217 0
-19 -216 0
-80 215 0
-80 214 0
-80 213 0
-70 215 0
-70 214 0
-70 -213 0
-60 215 0
-60 -214 0
-60 213 0
-50 215 0
-50 -214 0
-50 -213 0
-40 -215 0
-40 214 0
-40 213 0
-30 -215 0
-30 214 0
-30 -213 0
-20 -215 0
-20 -214 0
-20 213 0
-10 -215 0
-10 -214 0
-10 -213 0
-81 212 0
-81 -211 0
-81 -210 0
-81 -209 0
-71 -212 0
-71 211 0
-71 210 0
-71 209 0
-61 -212 0
-61 211 0
-61 210 0
-61 -209 0
-51 -212 0
-51 211 0
-51 -210 0
-51 209 0
-41 -212 0
-41 211 0
-41 -210 0
-41 -209 0
-31 -212 0
-31 -211 0
-31 210 0
-31 209 0
-21 -212 0
-21 -211 0
-21 210 0
-21 -209 0
-11 -212 0
-11 -211 0
-11 -210 0
-11 209 0
-1 -212 0
-1 -211 0
-1 -210 0
-1 -209 0
-72 208 0
-72 207 0
-72 206 0
-62 208 0
-62 207 0
-62 -206 0
-52 208 0
-52 -207 0
-52 206 0
-42 208 0
-42 -207 0
-42 -206 0
-32 -208 0
-32 207 0
-32 206 0
-22 -208 0
-22 207 0
-22 -206 0
-12 -208 0
-12 -207 0
-12 206 0
-2 -208 0
-2 -207 0
-2 -206 0
-63 205 0
-63 204 0
-63 -203 0
-53 205 0
-53 -204 0
-53 203 0
-43 205 0
-43 -204 0
-43 -203 0
-33 -205 0
-33 204 0
-33 203 0
-23 -205 0
-23 204 0
-23 -203 0
-13 -205 0
-13 -204 0
-13 203 0
-3 -205 0
-3 -204 0
-3 -203 0
-54 202 0
-54 -201 0
-54 200 0
-44 202 0
-44 -201 0
-44 -200 0
-34 -202 0
-34 201 0
-34 200 0
-24 -202 0
-24 201 0
-24 -200 0
-14 -202 0
-14 -201 0
-14 200 0
-4 -202 0
-4 -201 0
-4 -200 0
-45 199 0
-45 -198 0
-45 -197 0
-35 -199 0
-35 198 0
-35 197 0
-25 -199 0
-25 198 0
-25 -197 0
-15 -199 0
-15 -198 0
-15 197 0
-5 -199 0
-5 -198 0
-5 -197 0
-36 196 0
-36 195 0
-26 196 0
-26 -195 0
-16 -196 0
-16 195 0
-6 -196 0
-6 -195 0
-27 194 0
-27 -193 0
-17 -194 0
-17 193 0
-7 -194 0
-7 -193 0
-18 192 0
-8 -192 0
-80 191 0
-72 -191 0
-79 190 0
-79 -189 0
-71 -190 0
-71 189 0
-63 -190 0
-63 -189 0
-78 188 0
-78 187 0
-70 188 0
-70 -187 0
-62 -188 0
-62 187 0
-54 -188 0
-54 -187 0
-77 186 0
-77 -185 0
-77 -184 0
-69 -186 0
-69 185 0
-69 184 0
-61 -186 0
-61 185 0
-61 -184 0
-53 -186 0
-53 -185 0
-53 184 0
-45 -186 0
-45 -185 0
-45 -184 0
-76 183 0
-76 -182 0
-76 181 0
-68 183 0
-68 -182 0
-68 -181 0
-60 -183 0
-60 182 0
-60 181 0
-52 -183 0
-52 182 0
-52 -181 0
-44 -183 0
-44 -182 0
-44 181 0
-36 -183 0
-36 -182 0
-36 -181 0
-75 180 0
-75 179 0
-75 -178 0
-67 180 0
-67 -179 0
-67 178 0
-59 180 0
-59 -179 0
-59 -178 0
-51 -180 0
-51 179 0
-51 178 0
-43 -180 0
-43 179 0
-43 -178 0
-35 -180 0
-35 -179 0
-35 178 0
-27 -180 0
-27 -179 0
-27 -178 0
-74 177 0
-74 176 0
-74 175 0
-66 177 0
-66 176 0
-66 -175 0
-58 177 0
-58 -176 0
-58 175 0
-50 177 0
-50 -176 0
-50 -175 0
-42 -177 0
-42 176 0
-42 175 0
-34 -177 0
-34 176 0
-34 -175 0
-26 -177 0
-26 -176 0
-26 175 0
-18 -177 0
-18 -176 0
-18 -175 0
-73 174 0
-73 -173 0
-73 -172 0
-73 -171 0
-65 -174 0
-65 173 0
-65 172 0
-65 171 0
-57 -174 0
-57 173 0
-57 172 0
-57 -171 0
-49 -174 0
-49 173 0
-49 -172 0
-49 171 0
-41 -174 0
-41 173 0
-41 -172 0
-41 -171 0
-33 -174 0
-33 -173 0
-33 172 0
-33 171 0
-25 -174 0
-25 -173 0
-25 172 0
-25 -171 0
-17 -174 0
-17 -173 0
-17 -172 0
-17 171 0
-9 -174 0
-9 -173 0
-9 -172 0
-9 -171 0
-64 170 0
-64 169 0
-64 168 0
-56 170 0
-56 169 0
-56 -168 0
-48 170 0
-48 -169 0
-48 168 0
-40 170 0
-40 -169 0
-40 -168 0
-32 -170 0
-32 169 0
-32 168 0
-24 -170 0
-24 169 0
-24 -168 0
-16 -170 0
-16 -169 0
-16 168 0
-8 -170 0
-8 -169 0
-8 -168 0
-55 167 0
-55 166 0
-55 -165 0
-47 167 0
-47 -166 0
-47 165 0
-39 167 0
-39 -166 0
-39 -165 0
-31 -167 0
-31 166 0
-31 165 0
-23 -167 0
-23 166 0
-23 -165 0
-15 -167 0
-15 -166 0
-15 165 0
-7 -167 0
-7 -166 0
-7 -165 0
-46 164 0
-46 -163 0
-46 162 0
-38 164 0
-38 -163 0
-38 -162 0
-30 -164 0
-30 163 0
-30 162 0
-22 -164 0
-22 163 0
-22 -162 0
-14 -164 0
-14 -163 0
-14 162 0
-6 -164 0
-6 -163 0
-6 -162 0
-37 161 0
-37 -160 0
-37 -159 0
-29 -161 0
-29 160 0
-29 159 0
-21 -161 0
-21 160 0
-21 -159 0
-13 -161 0
-13 -160 0
-13 159 0
-5 -161 0
-5 -160 0
-5 -159 0
-28 158 0
-28 157 0
-20 158 0
-20 -157 0
-12 -158 0
-12 157 0
-4 -158 0
-4 -157 0
-19 156 0
-19 -155 0
-11 -156 0
-11 155 0
-3 -156 0
-3 -155 0
-10 154 0
-2 -154 0
-81 153 0
-81 -152 0
-81 -151 0
-81 -150 0
-72 -153 0
-72 152 0
-72 151 0
-72 150 0
-63 -153 0
-63 152 0
-63 151 0
-63 -150 0
-54 -153 0
-54 152 0
-54 -151 0
-54 150 0
-45 -153 0
-45 152 0
-45 -151 0
-45 -150 0
-36 -153 0
-36 -152 0
-36 151 0
-36 150 0
-27 -153 0
-27 -152 0
-27 151 0
-27 -150 0
-18 -153 0
-18 -152 0
-18 -151 0
-18 150 0
-9 -153 0
-9 -152 0
-9 -151 0
-9 -150 0
-80 149 0
-80 -148 0
-80 -147 0
-80 -146 0
-71 -149 0
-71 148 0
-71 147 0
-71 146 0
-62 -149 0
-62 148 0
-62 147 0
-62 -146 0
-53 -149 0
-53 148 0
-53 -147 0
-53 146 0
-44 -149 0
-44 148 0
-44 -147 0
-44 -146 0
-35 -149 0
-35 -148 0
-35 147 0
-35 146 0
-26 -149 0
-26 -148 0
-26 147 0
-26 -146 0
-17 -149 0
-17 -148 0
-17 -147 0
-17 146 0
-8 -149 0
-8 -148 0
-8 -147 0
-8 -146 0
-79 145 0
-79 -144 0
-79 -143 0
-79 -142 0
-70 -145 0
-70 144 0
-70 143 0
-70 142 0
-61 -145 0
-61 144 0
-61 143 0
-61 -142 0
-52 -145 0
-52 144 0
-52 -143 0
-52 142 0
-43 -145 0
-43 144 0
-43 -143 0
-43 -142 0
-34 -145 0
-34 -144 0
-34 143 0
-34 142 0
-25 -145 0
-25 -144 0
-25 143 0
-25 -142 0
-16 -145 0
-16 -144 0
-16 -143 0
-16 142 0
-7 -145 0
-7 -144 0
-7 -143 0
-7 -142 0
-78 141 0
-78 -140 0
-78 -139 0
-78 -138 0
-69 -141 0
-69 140 0
-69 139 0
-69 138 0
-60 -141 0
-60 140 0
-60 139 0
-60 -138 0
-51 -141 0
-51 140 0
-51 -139 0
-51 138 0
-42 -141 0
-42 140 0
-42 -139 0
-42 -138 0
-33 -141 0
-33 -140 0
-33 139 0
-33 138 0
-24 -141 0
-24 -140 0
-24 139 0
-24 -138 0
-15 -141 0
-15 -140 0
-15 -139 0
-15 138 0
-6 -141 0
-6 -140 0
-6 -139 0
-6 -138 0
-77 137 0
-77 -136 0
-77 -135 0
-77 -134 0
-68 -137 0
-68 136 0
-68 135 0
-68 134 0
-59 -137 0
-59 136 0
-59 135 0
-59 -134 0
-50 -137 0
-50 136 0
-50 -135 0
-50 134 0
-41 -137 0
-41 136 0
-41 -135 0
-41 -134 0
-32 -137 0
-32 -136 0
-32 135 0
-32 134 0
-23 -137 0
-23 -136 0
-23 135 0
-23 -134 0
-14 -137 0
-14 -136 0
-14 -135 0
-14 134 0
-5 -137 0
-5 -136 0
-5 -135 0
-5 -134 0
-76 133 0
-76 -132 0
-76 -131 0
-76 -130 0
-67 -133 0
-67 132 0
-67 131 0
-67 130 0
-58 -133 0
-58 132 0
-58 131 0
-58 -130 0
-49 -133 0
-49 132 0
-49 -131 0
-49 130 0
-40 -133 0
-40 132 0
-40 -131 0
-40 -130 0
-31 -133 0
-31 -132 0
-31 131 0
-31 130 0
-22 -133 0
-22 -132 0
-22 131 0
-22 -130 0
-13 -133 0
-13 -132 0
-13 -131 0
-13 130 0
-4 -133 0
-4 -132 0
-4 -131 0
-4 -130 0
-75 129 0
-75 -128 0
-75 -127 0
-75 -126 0
-66 -129 0
-66 128 0
-66 127 0
-66 126 0
-57 -129 0
-57 128 0
-57 127 0
-57 -126 0
-48 -129 0
-48 128 0
-48 -127 0
-48 126 0
-39 -129 0
-39 128 0
-39 -127 0
-39 -126 0
-30 -129 0
-30 -128 0
-30 127 0
-30 126 0
-21 -129 0
-21 -128 0
-21 127 0
-21 -126 0
-12 -129 0
-12 -128 0
-12 -127 0
-12 126 0
-3 -129 0
-3 -128 0
-3 -127 0
-3 -126 0
-74 125 0
-74 -124 0
-74 -123 0
-74 -122 0
-65 -125 0
-65 124 0
-65 123 0
-65 122 0
-56 -125 0
-56 124 0
-56 123 0
-56 -122 0
-47 -125 0
-47 124 0
-47 -123 0
-47 122 0
-38 -125 0
-38 124 0
-38 -123 0
-38 -122 0
-29 -125 0
-29 -124 0
-29 123 0
-29 122 0
-20 -125 0
-20 -124 0
-20 123 0
-20 -122 0
-11 -125 0
-11 -124 0
-11 -123 0
-11 122 0
-2 -125 0
-2 -124 0
-2 -123 0
-2 -122 0
-73 121 0
-73 -120 0
-73 -119 0
-73 -118 0
-64 -121 0
-64 120 0
-64 119 0
-64 118 0
-55 -121 0
-55 120 0
-55 119 0
-55 -118 0
-46 -121 0
-46 120 0
-46 -119 0
-46 118 0
-37 -121 0
-37 120 0
-37 -119 0
-37 -118 0
-28 -121 0
-28 -120 0
-28 119 0
-28 118 0
-19 -121 0
-19 -120 0
-19 119 0
-19 -118 0
-10 -121 0
-10 -120 0
-10 -119 0
-10 118 0
-1 -121 0
-1 -120 0
-1 -119 0
-1 -118 0
-81 117 0
-81 -116 0
-81 -115 0
-81 -114 0
-80 -117 0
-80 116 0
-80 115 0
-80 114 0
-79 -117 0
-79 116 0
-79 115 0
-79 -114 0
-78 -117 0
-78 116 0
-78 -115 0
-78 114 0
-77 -117 0
-77 116 0
-77 -115 0
-77 -114 0
-76 -117 0
-76 -116 0
-76 115 0
-76 114 0
-75 -117 0
-75 -116 0
-75 115 0
-75 -114 0
-74 -117 0
-74 -116 0
-74 -115 0
-74 114 0
-73 -117 0
-73 -116 0
-73 -115 0
-73 -114 0
-72 113 0
-72 -112 0
-72 -111 0
-72 -110 0
-71 -113 0
-71 112 0
-71 111 0
-71 110 0
-70 -113 0
-70 112 0
-70 111 0
-70 -110 0
-69 -113 0
-69 112 0
-69 -111 0
-69 110 0
-68 -113 0
-68 112 0
-68 -111 0
-68 -110 0
-67 -113 0
-67 -112 0
-67 111 0
-67 110 0
-66 -113 0
-66 -112 0
-66 111 0
-66 -110 0
-65 -113 0
-65 -112 0
-65 -111 0
-65 110 0
-64 -113 0
-64 -112 0
-64 -111 0
-64 -110 0
-63 109 0
-63 -108 0
-63 -107 0
-63 -106 0
-62 -109 0
-62 108 0
-62 107 0
-62 106 0
-61 -109 0
-61 108 0
-61 107 0
-61 -106 0
-60 -109 0
-60 108 0
-60 -107 0
-60 106 0
-59 -109 0
-59 108 0
-59 -107 0
-59 -106 0
-58 -109 0
-58 -108 0
-58 107 0
-58 106 0
-57 -109 0
-57 -108 0
-57 107 0
-57 -106 0
-56 -109 0
-56 -108 0
-56 -107 0
-56 106 0
-55 -109 0
-55 -108 0
-55 -107 0
-55 -106 0
-54 105 0
-54 -104 0
-54 -103 0
-54 -102 0
-53 -105 0
-53 104 0
-53 103 0
-53 102 0
-52 -105 0
-52 104 0
-52 103 0
-52 -102 0
-51 -105 0
-51 104 0
-51 -103 0
-51 102 0
-50 -105 0
-50 104 0
-50 -103 0
-50 -102 0
-49 -105 0
-49 -104 0
-49 103 0
-49 102 0
-48 -105 0
-48 -104 0
-48 103 0
-48 -102 0
-47 -105 0
-47 -104 0
-47 -103 0
-47 102 0
-46 -105 0
-46 -104 0
-46 -103 0
-46 -102 0
-45 101 0
-45 -100 0
-45 -99 0
-45 -98 0
-44 -101 0
-44 100 0
-44 99 0
-44 98 0
-43 -101 0
-43 100 0
-43 99 0
-43 -98 0
-42 -101 0
-42 100 0
-42 -99 0
-42 98 0
-41 -101 0
-41 100 0
-41 -99 0
-41 -98 0
-40 -101 0
-40 -100 0
-40 99 0
-40 98 0
-39 -101 0
-39 -100 0
-39 99 0
-39 -98 0
-38 -101 0
-38 -100 0
-38 -99 0
-38 98 0
-37 -101 0
-37 -100 0
-37 -99 0
-37 -98 0
-36 97 0
-36 -96 0
-36 -95 0
-36 -94 0
-35 -97 0
-35 96 0
-35 95 0
-35 94 0
-34 -97 0
-34 96 0
-34 95 0
-34 -94 0
-33 -97 0
-33 96 0
-33 -95 0
-33 94 0
-32 -97 0
-32 96 0
-32 -95 0
-32 -94 0
-31 -97 0
-31 -96 0
-31 95 0
-31 94 0
-30 -97 0
-30 -96 0
-30 95 0
-30 -94 0
-29 -97 0
-29 -96 0
-29 -95 0
-29 94 0
-28 -97 0
-28 -96 0
-28 -95 0
-28 -94 0
-27 93 0
-27 -92 0
-27 -91 0
-27 -90 0
-26 -93 0
-26 92 0
-26 91 0
-26 90 0
-25 -93 0
-25 92 0
-25 91 0
-25 -90 0
-24 -93 0
-24 92 0
-24 -91 0
-24 90 0
-23 -93 0
-23 92 0
-23 -91 0
-23 -90 0
-22 -93 0
-22 -92 0
-22 91 0
-22 90 0
-21 -93 0
-21 -92 0
-21 91 0
-21 -90 0
-20 -93 0
-20 -92 0
-20 -91 0
-20 90 0
-19 -93 0
-19 -92 0
-19 -91 0
-19 -90 0
-18 89 0
-18 -88 0
-18 -87 0
-18 -86 0
-17 -89 0
-17 88 0
-17 87 0
-17 86 0
-16 -89 0
-16 88 0
-16 87 0
-16 -86 0
-15 -89 0
-15 88 0
-15 -87 0
-15 86 0
-14 -89 0
-14 88 0
-14 -87 0
-14 -86 0
-13 -89 0
-13 -88 0
-13 87 0
-13 86 0
-12 -89 0
-12 -88 0
-12 87 0
-12 -86 0
-11 -89 0
-11 -88 0
-11 -87 0
-11 86 0
-10 -89 0
-10 -88 0
-10 -87 0
-10 -86 0
-9 85 0
-9 -84 0
-9 -83 0
-9 -82 0
-8 -85 0
-8 84 0
-8 83 0
-8 82 0
-7 -85 0
-7 84 0
-7 83 0
-7 -82 0
-6 -85 0
-6 84 0
-6 -83 0
-6 82 0
-5 -85 0
-5 84 0
-5 -83 0
-5 -82 0
-4 -85 0
-4 -84 0
-4 83 0
-4 82 0
-3 -85 0
-3 -84 0
-3 83 0
-3 -82 0
-2 -85 0
-2 -84 0
-2 -83 0
-2 82 0
-1 -85 0
-1 -84 0
-1 -83 0
-1 -82 0
9 18 27 36 45 54 63 72 81 0
8 17 26 35 44 53 62 71 80 0
7 16 25 34 43 52 61 70 79 0
6 15 24 33 42 51 60 69 78 0
5 14 23 32 41 50 59 68 77 0
4 13 22 31 40 49 58 67 76 0
3 12 21 30 39 48 57 66 75 0
2 11 20 29 38 47 56 65 74 0
1 10 19 28 37 46 55 64 73 0
73 74 75 76 77 78 79 80 81 0
64 65 66 67 68 69 70 71 72 0
55 56 57 58 59 60 61 62 63 0
46 47 48 49 50 51 52 53 54 0
37 38 39 40 41 42 43 44 45 0
28 29 30 31 32 33 34 35 36 0
19 20 21 22 23 24 25 26 27 0
10 11 12 13 14 15 16 17 18 0
1 2 3 4 5 6 7 8 9 0
